
List of user-set options:

                                    Name   Value                used
                           compl_inf_tol = 1                     yes
                         constr_viol_tol = 1                     yes
                            dual_inf_tol = 1000                  yes
                           linear_solver = ma97                  yes
                              ma86_small = 1e-30                  no
                                  ma86_u = 0.0001                 no
                              ma97_order = best                  yes
                              ma97_small = 1e-30                 yes
                            ma97_switch1 = at_start              yes
                            ma97_switch2 = od_hd_reuse           yes
                                  ma97_u = 1e-06                 yes
                               ma97_umax = 0.5                   yes
                                max_iter = 1000                  yes
                    max_refinement_steps = 20                    yes
                    min_refinement_steps = 5                     yes
                                 mu_init = 1e-06                 yes
           mu_superlinear_decrease_power = 1.25                  yes
                   nlp_scaling_min_value = 1e-08                 yes
                        option_file_name = Preset_Case_540_pf.opt  yes
                             output_file = ./tmp/Preset_Case_540_pf.output  yes
                      print_user_options = yes                   yes
        required_infeasibility_reduction = 1                      no
                                     tol = 1e-08                 yes
                   warm_start_bound_frac = 1e-20                 yes
                   warm_start_bound_push = 1e-20                 yes
                   warm_start_init_point = yes                   yes
              warm_start_mult_bound_push = 1e-20                 yes
                warm_start_mult_init_max = 1e+40                 yes
             warm_start_slack_bound_frac = 1e-20                 yes
             warm_start_slack_bound_push = 1e-20                 yes

******************************************************************************
This program contains Ipopt, a library for large-scale nonlinear optimization.
 Ipopt is released as open source code under the Eclipse Public License (EPL).
         For more information visit http://projects.coin-or.org/Ipopt
******************************************************************************

This is Ipopt version 3.12.10, running with linear solver ma97.

Number of nonzeros in equality constraint Jacobian...:   123443
Number of nonzeros in inequality constraint Jacobian.:      213
Number of nonzeros in Lagrangian Hessian.............:    49069

Total number of variables............................:    31591
                     variables with only lower bounds:    12912
                variables with lower and upper bounds:    15130
                     variables with only upper bounds:        0
Total number of equality constraints.................:    31483
Total number of inequality constraints...............:       25
        inequality constraints with only lower bounds:        4
   inequality constraints with lower and upper bounds:        0
        inequality constraints with only upper bounds:       21

iter    objective    inf_pr   inf_du lg(mu)  ||d||  lg(rg) alpha_du alpha_pr  ls
   0 -5.3639548e+00 4.89e-03 1.02e+00  -6.0 0.00e+00    -  0.00e+00 0.00e+00   0
   1 -5.3633345e+00 9.30e-02 1.32e+00  -6.0 3.73e+05    -  8.55e-05 1.12e-04h  4
   2 -5.3646727e+00 9.29e-02 5.09e+01  -6.0 5.33e+03    -  2.23e-01 1.27e-03h  1
   3 -5.7810749e+00 6.43e+00 2.22e+03  -6.0 5.32e+03    -  1.61e-01 3.95e-01f  1
   4 -5.9461255e+00 1.33e+01 1.94e+03  -6.0 2.14e+03    -  2.06e-01 3.77e-01h  1
   5 -6.0714393e+00 1.37e+01 1.28e+03  -6.0 1.15e+03    -  1.83e-02 7.07e-01h  1
   6 -6.0644250e+00 1.25e+01 1.78e+03  -6.0 1.27e+03    -  3.62e-01 1.00e-01h  1
   7 -6.0185504e+00 8.96e+00 9.78e+05  -6.0 7.52e+02    -  1.01e-04 1.00e+00h  1
   8 -6.0058000e+00 2.02e-01 1.40e+03  -6.0 2.42e+02    -  5.01e-01 1.00e+00h  1
   9 -6.0142674e+00 2.05e-01 2.64e+02  -6.0 8.13e+01    -  5.18e-01 1.00e+00h  1
iter    objective    inf_pr   inf_du lg(mu)  ||d||  lg(rg) alpha_du alpha_pr  ls
  10 -6.0130154e+00 4.37e-04 1.81e+02  -6.0 1.55e+00  -4.0 8.14e-01 1.00e+00h  1
  11 -6.0200634e+00 2.35e+00 2.07e+01  -6.0 3.65e+02    -  6.90e-02 1.00e+00h  1
  12 -6.0187109e+00 2.23e-04 3.13e-02  -6.0 2.66e+00  -4.5 1.00e+00 1.00e+00h  1
  13 -6.0188752e+00 7.56e-05 3.52e-02  -6.0 2.62e+00  -5.0 1.00e+00 1.00e+00h  1
  14 -6.0191294e+00 5.02e-04 1.48e-01  -6.0 6.61e+00  -5.4 1.00e+00 1.00e+00h  1
  15 -6.0197972e+00 3.81e-03 6.31e-01  -6.0 1.53e+01  -5.9 1.00e+00 1.00e+00h  1
  16 -6.0213041e+00 2.53e-02 2.28e+00  -6.0 3.46e+01  -6.4 1.00e+00 1.00e+00h  1
  17 -6.0250300e+00 1.44e-01 1.10e+01  -6.0 9.18e+01  -6.9 7.63e-01 1.00e+00h  1
  18 -6.0480673e+00 7.83e+00 4.72e+02  -6.0 6.58e+02  -7.3 2.69e-01 1.00e+00h  1
  19 -6.0525672e+00 7.05e+00 4.25e+02  -6.0 1.15e+03  -7.8 1.35e-01 1.01e-01h  1
iter    objective    inf_pr   inf_du lg(mu)  ||d||  lg(rg) alpha_du alpha_pr  ls
  20 -6.0791201e+00 6.88e+00 9.52e+03  -6.0 1.64e+03    -  1.00e-01 1.00e+00h  1
  21 -6.0778978e+00 6.24e+00 9.59e+03  -6.0 4.78e+00  -4.7 9.81e-01 9.34e-02h  1
  22 -6.0654601e+00 8.02e-03 9.75e+00  -6.0 3.53e+00  -5.2 1.00e+00 1.00e+00h  1
  23 -6.0660312e+00 5.31e-03 3.60e-01  -6.0 1.00e+01  -5.6 1.00e+00 1.00e+00h  1
  24 -6.0671987e+00 2.54e-02 1.59e-01  -6.0 2.45e+01  -6.1 1.00e+00 1.00e+00h  1
  25 -6.0696465e+00 6.03e-02 7.23e-01  -6.0 4.52e+01  -6.6 1.00e+00 1.00e+00h  1
  26 -6.0755860e+00 8.33e-01 3.54e+00  -6.0 1.68e+02  -7.1 1.00e+00 1.00e+00h  1
  27 -6.0795357e+00 1.12e+00 6.82e+00  -6.0 2.93e+03  -7.5 6.75e-02 3.55e-02h  1
  28 -6.0892376e+00 3.22e+00 2.78e+02  -6.0 6.38e+02    -  1.00e+00 1.00e+00h  1
  29 -6.0960020e+00 1.79e+00 4.14e+02  -6.0 3.61e+02  -7.1 4.58e-01 4.46e-01h  1
iter    objective    inf_pr   inf_du lg(mu)  ||d||  lg(rg) alpha_du alpha_pr  ls
  30 -6.0910778e+00 9.27e-01 1.29e+05  -6.0 1.90e+02    -  2.15e-01 5.00e-01h  2
  31 -6.0957650e+00 6.17e-01 5.57e+04  -6.0 1.59e+02  -5.8 6.82e-01 5.66e-01h  1
  32 -6.0957683e+00 6.17e-01 5.57e+04  -6.0 4.67e+02    -  3.04e-01 4.35e-05h  1
  33 -6.1083871e+00 1.16e+00 2.38e+04  -6.0 3.23e+02    -  1.00e+00 5.67e-01f  1
  34r-6.1083871e+00 1.16e+00 9.99e+02   0.1 0.00e+00  -6.3 0.00e+00 3.41e-07R  5
  35r-6.1234119e+00 1.16e+00 9.99e+02   0.1 1.12e+04    -  6.14e-06 1.58e-06f  1
  36 -6.1278343e+00 1.16e+00 3.27e+02  -6.0 6.81e+04    -  1.35e-02 1.72e-03h  1
  37 -6.1354954e+00 1.15e+00 3.21e+02  -6.0 4.46e+04    -  4.91e-02 2.02e-02h  1
  38 -6.1475280e+00 1.37e+00 3.19e+02  -6.0 4.73e+04    -  4.56e-04 5.95e-03h  1
  39 -6.1936354e+00 3.44e+00 3.02e+02  -6.0 2.19e+04    -  5.04e-02 5.35e-02h  1
iter    objective    inf_pr   inf_du lg(mu)  ||d||  lg(rg) alpha_du alpha_pr  ls
  40 -6.2015394e+00 3.31e+00 2.86e+02  -6.0 6.95e+03    -  2.30e-01 3.68e-02h  1
  41 -6.2025210e+00 3.20e+00 2.72e+02  -6.0 2.47e+03    -  1.74e-01 3.38e-02h  1
  42 -6.2134928e+00 7.24e+01 1.30e+03  -6.0 9.99e+03    -  2.55e-02 2.14e-01h  1
  43 -6.2801713e+00 6.88e+01 1.25e+03  -6.0 6.05e+03    -  1.41e-01 5.44e-02h  1
  44 -6.3225463e+00 6.43e+01 1.17e+03  -6.0 3.52e+03    -  6.09e-02 6.53e-02h  1
  45 -6.4033104e+00 4.40e+01 7.33e+02  -6.0 1.35e+03    -  1.30e-01 3.18e-01h  1
  46 -6.3427131e+00 4.06e+01 5.51e+04  -6.0 3.91e+03    -  8.88e-04 2.18e-01H  1
  47 -6.3404553e+00 4.02e+01 5.44e+04  -6.0 1.97e+03    -  5.43e-01 1.19e-02h  1
  48 -6.2737698e+00 3.36e+01 3.52e+04  -6.0 1.98e+03    -  3.24e-01 3.54e-01h  2
  49 -6.2401008e+00 2.78e+01 2.67e+04  -6.0 1.62e+03    -  7.79e-01 2.41e-01h  3
iter    objective    inf_pr   inf_du lg(mu)  ||d||  lg(rg) alpha_du alpha_pr  ls
  50 -6.2125454e+00 2.26e+01 2.00e+04  -6.0 1.36e+03    -  6.50e-01 2.50e-01h  3
  51 -6.2090345e+00 2.15e+01 1.90e+04  -6.0 1.07e+03    -  5.24e-01 5.17e-02h  4
  52 -6.2088793e+00 2.14e+01 1.89e+04  -6.0 1.06e+03    -  3.43e-01 1.95e-03h 10
  53 -6.1360970e+00 1.62e+01 1.04e+02  -6.0 1.05e+03    -  1.00e+00 1.00e+00h  1
  54 -6.1330823e+00 1.02e+01 1.11e+03  -6.0 7.56e+02    -  2.61e-02 1.00e+00h  1
  55 -6.1300822e+00 7.60e+00 1.05e+02  -6.0 6.56e+02    -  3.81e-01 1.00e+00h  1
  56 -6.1302270e+00 2.98e+00 1.63e+00  -6.0 3.06e+02    -  1.00e+00 1.00e+00h  1
  57 -6.1293227e+00 1.14e-01 3.24e+01  -6.0 6.68e+01    -  4.14e-01 1.00e+00h  1
  58 -6.1293437e+00 8.26e-02 3.30e-01  -6.0 4.72e+01    -  9.63e-01 1.00e+00h  1
  59 -6.1293408e+00 2.77e-03 3.09e-04  -6.0 1.04e+01    -  1.00e+00 1.00e+00h  1
iter    objective    inf_pr   inf_du lg(mu)  ||d||  lg(rg) alpha_du alpha_pr  ls
  60 -6.1293408e+00 5.67e-08 2.12e-09  -6.0 2.88e-02    -  1.00e+00 1.00e+00h  1
  61 -6.1294128e+00 1.98e-02 3.80e+01  -7.5 3.66e+01    -  9.04e-01 7.72e-01h  1
  62 -6.1294169e+00 4.19e-03 8.18e+00  -7.5 8.59e+00    -  1.00e+00 8.75e-01h  1
  63 -6.1294165e+00 3.32e-05 2.48e-03  -7.5 1.07e+00    -  1.00e+00 1.00e+00h  1
  64 -6.1294165e+00 4.40e-10 1.65e-07  -7.5 4.52e-04    -  1.00e+00 1.00e+00h  1
  65 -6.1294181e+00 2.23e-05 6.81e-01  -9.0 1.18e+00    -  9.23e-01 8.48e-01h  1
  66 -6.1294184e+00 7.21e-07 7.33e-05  -9.0 1.79e-01    -  1.00e+00 1.00e+00f  1
  67 -6.1294184e+00 2.92e-10 3.25e-08  -9.0 5.40e-05    -  1.00e+00 1.00e+00h  1
  68 -6.1294184e+00 2.81e-10 2.64e-09  -9.0 1.94e-05    -  1.00e+00 1.00e+00h  1

Number of Iterations....: 68

                                   (scaled)                 (unscaled)
Objective...............:  -4.7886081217447671e+00   -6.1294183958333015e+00
Dual infeasibility......:   2.6432277823757481e-09    3.3833315614409578e-09
Constraint violation....:   2.8127703540891530e-10    2.8127703540891530e-10
Complementarity.........:   9.5804424712500768e-10    1.2262966363200099e-09
Overall NLP error.......:   2.6432277823757481e-09    3.3833315614409578e-09


Number of objective function evaluations             = 99
Number of objective gradient evaluations             = 69
Number of equality constraint evaluations            = 99
Number of inequality constraint evaluations          = 99
Number of equality constraint Jacobian evaluations   = 70
Number of inequality constraint Jacobian evaluations = 70
Number of Lagrangian Hessian evaluations             = 68
Total CPU secs in IPOPT (w/o function evaluations)   =    163.247
Total CPU secs in NLP function evaluations           =      2.780

EXIT: Optimal Solution Found.
